language ESSENCE' 1.0

letting jobs = 102
letting horizon = 770
letting resourcesRenew = 2
letting resourcesNonrenew = 2
letting resourceLimits = [38, 43, 278, 271]
letting successors = [[2, 3, 4, 5, 6, 7, 8, 9, 11, 12, 13, 14, 15, 16, 17, 18, 19, 20, 22, 27, 30], [54, 47, 43, 42, 39, 36, 34, 33, 29, 26, 25, 24, 23, 21], [51, 49, 48, 36, 33, 31, 10], [63, 54, 49, 48, 47, 42, 39, 38, 36, 35, 34, 24], [63, 49, 44, 41, 39, 38, 36, 35, 32, 24], [56, 52, 51, 49, 46, 44, 39, 38, 37, 28, 26], [54, 51, 48, 47, 41, 33, 25, 24], [56, 54, 53, 51, 50, 49, 43, 42, 41, 40, 39, 37, 36], [64, 63, 57, 53, 52, 50, 49, 46, 39, 37, 35, 31], [63, 57, 42, 39, 34, 24], [66, 63, 58, 57, 56, 54, 52, 51, 50, 49, 47, 44, 43, 39], [46, 39, 35, 24], [66, 64, 58, 50, 49, 46, 44, 39, 29], [63, 62, 57, 54, 53, 52, 51, 50, 46, 43, 42, 37], [83, 66, 64, 63, 62, 59, 55, 53, 52, 51, 49, 48, 43, 42], [66, 65, 53, 50, 48, 42, 41, 39], [70, 66, 65, 64, 62, 52, 51, 50, 43, 29], [66, 64, 57, 56, 54, 51, 48, 45, 41], [66, 65, 64, 60, 58, 57, 53, 52, 39], [72, 66, 62, 57, 52, 50, 45, 41], [90, 83, 70, 67, 66, 64, 62, 61, 59, 56, 51, 50, 49], [71, 67, 64, 54, 53, 52, 46, 45, 44], [90, 83, 78, 77, 72, 71, 70, 67, 66, 65, 59, 58, 57, 55, 50], [78, 64, 59, 53, 52, 50, 37], [68, 67, 66, 63, 61, 59, 49, 45], [72, 67, 64, 61, 59, 53, 50, 45], [65, 61, 56, 55, 53, 50, 46, 44], [90, 83, 78, 67, 61, 55, 54, 50, 42], [83, 78, 76, 73, 72, 71, 67, 61, 60, 59, 55, 53], [83, 77, 73, 71, 70, 68, 67, 66, 64, 46], [83, 68, 67, 65, 61, 60, 59, 54, 47], [83, 70, 67, 57, 56, 55, 52, 51], [73, 68, 66, 64, 61, 56, 55, 46], [66, 59, 45, 44], [89, 83, 77, 73, 70, 67, 65, 62, 60, 58, 56], [77, 75, 73, 70, 68, 64, 57, 46], [90, 89, 83, 76, 75, 73, 72, 71, 68, 66, 65, 61, 60], [100, 90, 83, 76, 75, 73, 72, 68, 65, 64, 61, 57], [77, 74, 72, 67, 62, 45], [101, 100, 98, 90, 82, 78, 75, 73, 72, 68, 66, 64, 55], [90, 83, 78, 77, 71, 69, 67, 59, 58], [101, 99, 89, 77, 75, 73, 72, 69, 60, 58], [101, 100, 99, 90, 89, 87, 77, 76, 75, 72, 69, 68], [100, 99, 90, 82, 79, 77, 76, 73, 72, 70, 68], [100, 83, 78, 76, 75, 73, 70, 55], [101, 90, 89, 88, 79, 78, 76, 72, 69, 59], [101, 96, 82, 78, 77, 75, 74, 73, 72, 62], [100, 99, 86, 82, 79, 76, 68, 61], [97, 89, 82, 80, 78, 77, 75, 72, 71, 65], [101, 99, 98, 89, 73, 69, 60], [100, 86, 85, 81, 78, 77, 76, 75, 73, 68], [99, 89, 86, 80, 79, 61], [100, 99, 90, 79, 69, 68], [101, 100, 99, 98, 96, 93, 89, 87, 86, 81, 80, 76], [99, 97, 89, 88, 87, 86, 79, 69], [98, 87, 81, 75, 74, 72], [101, 99, 98, 96, 93, 89, 87, 86, 82, 81, 79], [98, 86, 81, 76, 68], [100, 99, 98, 97, 96, 95, 93, 87, 86, 84, 82, 80], [100, 97, 95, 86, 82, 81, 79, 74], [101, 97, 87, 84, 77, 69], [99, 98, 88, 85, 80, 79, 76], [100, 96, 93, 82, 80, 76, 75], [99, 97, 96, 95, 94, 93, 87, 86, 80, 79], [88, 87, 79, 69], [97, 95, 87, 85, 84, 74], [99, 96, 95, 85, 75], [97, 96, 84, 74], [96, 95, 93, 91, 85, 81], [101, 95, 85, 81, 80], [98, 95, 86, 84, 81], [95, 93, 86, 85], [93, 92, 87, 84], [88, 80], [94, 79], [97, 95, 94, 92], [98, 93, 92, 91], [94, 93, 91], [92, 84], [92, 91], [94, 92], [94, 92], [98, 96], [91], [92], [91], [91], [93], [95], [91], [102], [102], [102], [102], [102], [102], [102], [102], [102], [102], [102], []]
letting durations = [[0], [4, 4, 5], [1, 5, 8], [2, 3, 5], [3, 4, 7], [4, 4, 8], [4, 6, 9], [1, 8, 8], [5, 5, 9], [3, 6, 8], [2, 6, 7], [5, 9, 10], [1, 7, 9], [2, 5, 9], [2, 8, 8], [4, 5, 5], [2, 4, 8], [6, 6, 7], [5, 9, 10], [1, 9, 10], [2, 4, 5], [4, 8, 10], [8, 8, 9], [1, 3, 9], [6, 7, 8], [2, 6, 7], [2, 3, 7], [1, 4, 5], [1, 6, 8], [2, 4, 5], [6, 10, 10], [1, 6, 7], [1, 2, 3], [3, 8, 9], [5, 5, 9], [4, 7, 10], [4, 7, 7], [1, 4, 8], [1, 4, 8], [1, 1, 2], [4, 4, 9], [3, 4, 9], [2, 3, 5], [5, 7, 8], [1, 6, 10], [4, 6, 6], [3, 5, 10], [2, 5, 7], [2, 3, 10], [2, 6, 9], [5, 8, 9], [1, 2, 8], [2, 3, 6], [5, 6, 8], [7, 7, 8], [4, 6, 10], [5, 6, 7], [1, 3, 7], [1, 4, 7], [1, 4, 7], [5, 6, 7], [1, 2, 8], [6, 9, 10], [4, 5, 8], [1, 7, 8], [3, 4, 6], [3, 8, 9], [1, 3, 4], [1, 2, 4], [5, 9, 9], [2, 4, 7], [3, 7, 7], [1, 3, 4], [5, 5, 7], [1, 4, 5], [1, 2, 3], [2, 6, 7], [5, 8, 8], [3, 10, 10], [1, 2, 5], [1, 4, 9], [3, 3, 8], [3, 6, 10], [3, 4, 10], [7, 8, 10], [2, 3, 4], [1, 7, 10], [8, 8, 8], [4, 8, 10], [3, 9, 10], [1, 4, 8], [3, 8, 9], [2, 3, 10], [3, 8, 10], [1, 3, 4], [7, 7, 8], [1, 1, 8], [1, 7, 9], [4, 4, 8], [3, 4, 5], [3, 7, 10], [0]]
letting resourceUsage = [[[0, 0, 0, 0]], [[0, 4, 9, 0], [0, 4, 0, 7], [0, 4, 0, 6]], [[0, 3, 0, 3], [0, 2, 0, 2], [0, 1, 3, 0]], [[0, 2, 0, 4], [2, 0, 5, 0], [2, 0, 3, 0]], [[3, 0, 0, 3], [0, 3, 0, 2], [0, 3, 0, 1]], [[2, 0, 0, 9], [0, 3, 6, 0], [1, 0, 0, 8]], [[4, 0, 0, 7], [0, 1, 1, 0], [0, 1, 0, 2]], [[5, 0, 9, 0], [0, 1, 0, 8], [0, 1, 9, 0]], [[0, 5, 7, 0], [0, 4, 0, 8], [0, 3, 1, 0]], [[3, 0, 0, 8], [0, 4, 8, 0], [0, 4, 7, 0]], [[0, 1, 10, 0], [1, 0, 0, 6], [0, 1, 0, 6]], [[1, 0, 0, 7], [1, 0, 3, 0], [0, 5, 2, 0]], [[4, 0, 0, 8], [0, 5, 0, 8], [3, 0, 0, 6]], [[5, 0, 0, 6], [3, 0, 4, 0], [3, 0, 2, 0]], [[3, 0, 4, 0], [0, 4, 0, 6], [2, 0, 0, 2]], [[3, 0, 7, 0], [3, 0, 4, 0], [3, 0, 0, 8]], [[0, 4, 5, 0], [0, 3, 4, 0], [2, 0, 0, 7]], [[0, 1, 0, 8], [4, 0, 0, 8], [4, 0, 0, 7]], [[0, 4, 0, 2], [2, 0, 0, 2], [0, 2, 0, 1]], [[0, 3, 4, 0], [3, 0, 2, 0], [0, 3, 2, 0]], [[5, 0, 5, 0], [0, 2, 5, 0], [4, 0, 3, 0]], [[0, 4, 0, 7], [0, 4, 0, 6], [0, 3, 0, 4]], [[4, 0, 6, 0], [0, 1, 4, 0], [4, 0, 2, 0]], [[3, 0, 0, 8], [3, 0, 3, 0], [3, 0, 0, 5]], [[0, 2, 0, 5], [3, 0, 5, 0], [3, 0, 4, 0]], [[2, 0, 7, 0], [0, 3, 5, 0], [0, 1, 5, 0]], [[2, 0, 7, 0], [1, 0, 0, 3], [0, 1, 0, 1]], [[1, 0, 8, 0], [1, 0, 7, 0], [1, 0, 6, 0]], [[0, 3, 6, 0], [4, 0, 5, 0], [2, 0, 3, 0]], [[3, 0, 10, 0], [0, 2, 8, 0], [3, 0, 0, 4]], [[3, 0, 0, 5], [3, 0, 0, 4], [0, 2, 0, 1]], [[0, 4, 0, 8], [0, 4, 0, 7], [1, 0, 5, 0]], [[5, 0, 0, 7], [0, 5, 2, 0], [0, 5, 0, 6]], [[5, 0, 0, 5], [0, 3, 2, 0], [0, 3, 0, 5]], [[0, 3, 6, 0], [3, 0, 0, 1], [1, 0, 0, 1]], [[0, 3, 0, 10], [3, 0, 8, 0], [0, 2, 6, 0]], [[5, 0, 0, 10], [4, 0, 0, 9], [4, 0, 3, 0]], [[1, 0, 6, 0], [1, 0, 5, 0], [1, 0, 4, 0]], [[2, 0, 0, 9], [0, 3, 0, 8], [0, 3, 0, 7]], [[2, 0, 0, 3], [1, 0, 8, 0], [0, 3, 8, 0]], [[0, 2, 2, 0], [0, 1, 0, 9], [2, 0, 0, 8]], [[5, 0, 0, 7], [0, 1, 4, 0], [0, 1, 1, 0]], [[4, 0, 0, 4], [0, 1, 0, 4], [0, 1, 0, 3]], [[3, 0, 7, 0], [3, 0, 4, 0], [0, 2, 3, 0]], [[0, 2, 0, 3], [3, 0, 0, 2], [1, 0, 1, 0]], [[0, 2, 2, 0], [0, 1, 1, 0], [0, 1, 0, 3]], [[0, 3, 10, 0], [0, 2, 7, 0], [0, 2, 6, 0]], [[3, 0, 4, 0], [3, 0, 0, 3], [0, 3, 0, 3]], [[0, 4, 8, 0], [0, 3, 8, 0], [1, 0, 6, 0]], [[3, 0, 0, 9], [2, 0, 0, 8], [0, 1, 7, 0]], [[4, 0, 0, 7], [3, 0, 8, 0], [3, 0, 7, 0]], [[0, 1, 0, 6], [0, 1, 6, 0], [4, 0, 4, 0]], [[2, 0, 0, 8], [2, 0, 0, 6], [2, 0, 0, 5]], [[0, 2, 8, 0], [0, 2, 0, 6], [3, 0, 0, 1]], [[4, 0, 3, 0], [0, 3, 3, 0], [0, 2, 3, 0]], [[2, 0, 0, 8], [2, 0, 0, 6], [2, 0, 0, 5]], [[0, 3, 0, 2], [0, 3, 0, 1], [2, 0, 0, 1]], [[3, 0, 0, 6], [3, 0, 0, 5], [3, 0, 0, 4]], [[0, 4, 0, 8], [0, 3, 0, 7], [2, 0, 0, 7]], [[0, 3, 0, 4], [2, 0, 4, 0], [1, 0, 0, 2]], [[2, 0, 0, 2], [0, 1, 0, 2], [0, 1, 1, 0]], [[4, 0, 7, 0], [3, 0, 6, 0], [3, 0, 0, 4]], [[0, 3, 6, 0], [0, 2, 0, 4], [4, 0, 3, 0]], [[5, 0, 8, 0], [0, 4, 7, 0], [3, 0, 7, 0]], [[3, 0, 0, 7], [0, 2, 5, 0], [0, 2, 0, 4]], [[4, 0, 0, 4], [4, 0, 0, 3], [4, 0, 7, 0]], [[0, 2, 2, 0], [0, 1, 0, 4], [0, 1, 2, 0]], [[4, 0, 0, 8], [3, 0, 6, 0], [0, 1, 0, 6]], [[3, 0, 9, 0], [2, 0, 7, 0], [2, 0, 0, 3]], [[3, 0, 0, 6], [0, 1, 0, 3], [2, 0, 0, 3]], [[4, 0, 5, 0], [3, 0, 4, 0], [3, 0, 0, 6]], [[4, 0, 0, 8], [3, 0, 3, 0], [2, 0, 0, 8]], [[0, 2, 8, 0], [0, 1, 8, 0], [2, 0, 8, 0]], [[0, 3, 0, 3], [4, 0, 6, 0], [0, 1, 0, 2]], [[3, 0, 10, 0], [0, 3, 5, 0], [2, 0, 0, 6]], [[0, 3, 0, 4], [4, 0, 0, 4], [0, 3, 2, 0]], [[4, 0, 8, 0], [2, 0, 7, 0], [1, 0, 5, 0]], [[5, 0, 0, 2], [0, 1, 0, 2], [3, 0, 6, 0]], [[0, 1, 0, 8], [3, 0, 0, 8], [0, 1, 3, 0]], [[3, 0, 0, 7], [0, 4, 6, 0], [2, 0, 0, 7]], [[2, 0, 8, 0], [2, 0, 6, 0], [2, 0, 5, 0]], [[3, 0, 0, 4], [2, 0, 8, 0], [2, 0, 6, 0]], [[0, 3, 0, 2], [0, 3, 9, 0], [2, 0, 9, 0]], [[1, 0, 5, 0], [0, 3, 0, 2], [1, 0, 0, 2]], [[0, 4, 0, 6], [0, 4, 4, 0], [2, 0, 0, 5]], [[3, 0, 0, 8], [0, 4, 0, 8], [2, 0, 4, 0]], [[3, 0, 9, 0], [2, 0, 8, 0], [0, 3, 0, 7]], [[3, 0, 6, 0], [0, 2, 0, 7], [2, 0, 0, 6]], [[0, 2, 0, 5], [2, 0, 0, 4], [1, 0, 0, 4]], [[0, 2, 8, 0], [0, 2, 0, 4], [4, 0, 7, 0]], [[0, 2, 4, 0], [2, 0, 3, 0], [2, 0, 0, 3]], [[0, 3, 3, 0], [2, 0, 3, 0], [2, 0, 2, 0]], [[1, 0, 5, 0], [0, 2, 0, 7], [1, 0, 3, 0]], [[5, 0, 10, 0], [4, 0, 8, 0], [0, 2, 0, 5]], [[0, 5, 9, 0], [1, 0, 8, 0], [1, 0, 0, 3]], [[4, 0, 0, 3], [0, 3, 3, 0], [0, 3, 2, 0]], [[0, 2, 9, 0], [3, 0, 0, 1], [0, 2, 8, 0]], [[0, 1, 3, 0], [3, 0, 0, 4], [3, 0, 3, 0]], [[4, 0, 0, 8], [0, 3, 6, 0], [0, 1, 4, 0]], [[2, 0, 8, 0], [2, 0, 0, 5], [2, 0, 0, 4]], [[0, 5, 0, 9], [5, 0, 0, 9], [0, 2, 0, 9]], [[0, 0, 0, 0]]]
